1 3 100 570472.39
1 3 200 578270.35
1 3 300 581914.67
2 3 100 615977.40
2 3 200 623528.55
2 3 300 632293.21
3 3 100 616113.24
3 3 200 621623.69
3 3 300 614097.88
4 3 100 598404.89
4 3 200 603770.11
4 3 300 608732.90
5 3 100 581165.04
5 3 200 579747.67
5 3 300 589173.69
